/* Objective function */
min: +C37 +C38 +C39 +C40 +C41 +C42;

/* Constraints */
+29 C1 +21 C2 +60 C3 +19 C4 +62 C5 +9 C6 -91 C37 <= 0;
+29 C7 +21 C8 +60 C9 +19 C10 +62 C11 +9 C12 -91 C38 <= 0;
+29 C13 +21 C14 +60 C15 +19 C16 +62 C17 +9 C18 -91 C39 <= 0;
+29 C19 +21 C20 +60 C21 +19 C22 +62 C23 +9 C24 -91 C40 <= 0;
+29 C25 +21 C26 +60 C27 +19 C28 +62 C29 +9 C30 -91 C41 <= 0;
+29 C31 +21 C32 +60 C33 +19 C34 +62 C35 +9 C36 -91 C42 <= 0;
+2 C1 +10 C2 +27 C3 +36 C4 +12 C5 +20 C6 -37 C37 <= 0;
+2 C7 +10 C8 +27 C9 +36 C10 +12 C11 +20 C12 -37 C38 <= 0;
+2 C13 +10 C14 +27 C15 +36 C16 +12 C17 +20 C18 -37 C39 <= 0;
+2 C19 +10 C20 +27 C21 +36 C22 +12 C23 +20 C24 -37 C40 <= 0;
+2 C25 +10 C26 +27 C27 +36 C28 +12 C29 +20 C30 -37 C41 <= 0;
+2 C31 +10 C32 +27 C33 +36 C34 +12 C35 +20 C36 -37 C42 <= 0;
+C1 +C7 +C13 +C19 +C25 +C31 = 1;
+C2 +C8 +C14 +C20 +C26 +C32 = 1;
+C3 +C9 +C15 +C21 +C27 +C33 = 1;
+C4 +C10 +C16 +C22 +C28 +C34 = 1;
+C5 +C11 +C17 +C23 +C29 +C35 = 1;
+C6 +C12 +C18 +C24 +C30 +C36 = 1;

/* Variable bounds */
C1 <= 1;
C2 <= 1;
C3 <= 1;
C4 <= 1;
C5 <= 1;
C6 <= 1;
C7 <= 1;
C8 <= 1;
C9 <= 1;
C10 <= 1;
C11 <= 1;
C12 <= 1;
C13 <= 1;
C14 <= 1;
C15 <= 1;
C16 <= 1;
C17 <= 1;
C18 <= 1;
C19 <= 1;
C20 <= 1;
C21 <= 1;
C22 <= 1;
C23 <= 1;
C24 <= 1;
C25 <= 1;
C26 <= 1;
C27 <= 1;
C28 <= 1;
C29 <= 1;
C30 <= 1;
C31 <= 1;
C32 <= 1;
C33 <= 1;
C34 <= 1;
C35 <= 1;
C36 <= 1;
C37 <= 1;
C38 <= 1;
C39 <= 1;
C40 <= 1;
C41 <= 1;
C42 <= 1;

/* Integer definitions */
int C1,C2,C3,C4,C5,C6,C7,C8,C9,C10,C11,C12,C13,C14,C15,C16,C17,C18,C19,C20,C21,C22,C23,C24,C25,C26,C27,C28,C29,C30,C31,C32,C33,C34,C35,C36,C37,C38,C39,C40,C41,C42;
